#pLT is two-dimensional [i,r]=[component, individual]
#[i,*] means all data in row i.

param pLT := 
[1,*]
1  0    2  8    3  6    4  4    5  5    6  5    7  8    8  3    9  8    10 4    
11 8    12 4    

[2,*]
1  2    2  3    3  2    4  3    5  3    6  4    7  2    8  4    9  2    10 4    
11 2    12 4    

[3,*]
1  1    2  1    3  2    4  2    5  3    6  1    7  3    8  1    9  3    10 2    
11 3    12 3    

[4,*]
1  1    2  2    3  2    4  3    5  1    6  3    7  1    8  3    9  1    10 2    
11 3    12 2    

[5,*]
1  1    2  1    3  2    4  1    5  2    6  1    7  2    8  1    9  1    10 2    
11 1    12 1    

[6,*]
1  1    2  5    3  2    4  5    5  2    6  5    7  2    8  4    9  5    10 3    
11 3    12 3    

[7,*]
1  5    2  3    3  7    4  4    5  6    6  4    7  6    8  6    9  5    10 5    
11 5    12 6    

[8,*]
1  1    2  2    3  1    4  2    5  1    6  1    7  2    8  1    9  1    10 1    
11 1    12 1    

[9,*]
1  1    2  1    3  2    4  1    5  1    6  2    7  1    8  1    9  1    10 1    
11 1    12 1    

[10,*]
1  1    2  1    3  1    4  1    5  1    6  1    7  1    8  1    9  1    10 1    
11 1    12 1    
;